NAME SHARE1B
ROWS
 N  OBJ
 E  000002  
 E  000003  
 E  000004  
 E  000005  
 E  000006  
 E  000007  
 E  000008  
 E  000009  
 E  000010  
 E  000011  
 E  000012  
 E  000013  
 E  000014  
 E  000015  
 L  000016  
 E  000017  
 E  000018  
 L  000019  
 L  000020  
 E  000021  
 E  000022  
 L  000023  
 E  000024  
 E  000025  
 L  000026  
 L  000027  
 E  000028  
 E  000029  
 L  000030  
 E  000031  
 E  000032  
 L  000033  
 E  000034  
 E  000035  
 E  000036  
 E  000037  
 E  000038  
 E  000039  
 E  000040  
 E  000041  
 L  000042  
 L  000043  
 L  000044  
 E  000045  
 E  000046  
 E  000047  
 E  000048  
 E  000049  
 E  000050  
 E  000051  
 E  000052  
 L  000053  
 L  000054  
 L  000055  
 E  000056  
 E  000057  
 E  000058  
 E  000059  
 E  000060  
 E  000061  
 E  000062  
 E  000063  
 E  000064  
 E  000065  
 E  000066  
 E  000067  
 E  000068  
 E  000069  
 E  000070  
 L  000071  
 E  000072  
 E  000073  
 L  000074  
 E  000075  
 L  000076  
 E  000077  
 E  000078  
 L  000079  
 E  000080  
 E  000081  
 L  000082  
 L  000083  
 E  000084  
 E  000085  
 L  000086  
 E  000087  
 E  000088  
 L  000089  
 E  000090  
 E  000091  
 E  000092  
 E  000093  
 E  000094  
 E  000095  
 E  000096  
 E  000097  
 L  000098  
 L  000099  
 L  000100  
 E  000101  
 E  000102  
 E  000103  
 E  000104  
 E  000105  
 E  000106  
 E  000107  
 E  000108  
 L  000109  
 L  000110  
 L  000111  
 E  000112  
 E  000113  
 E  000114  
 E  000115  
 E  000116  
 E  000117  
 E  000118  
COLUMNS
    CCC001    000014    -1
    CCC001    000015    1
    CCC001    000016    100
    CCC001    000017    130.5
    CCC001    000018    -101
    CCC001    000020    -14
    CCC002    000002    1
    CCC002    000014    1
    CCC002    000016    -106
    CCC002    000017    -126
    CCC002    000018    339
    CCC002    000019    -447.5098
    CCC003    000005    1
    CCC003    000014    1
    CCC003    000016    -91.4
    CCC003    000017    -99.3
    CCC003    000018    83
    CCC003    000019    -18.24
    CCC004    000008    1
    CCC004    000014    1
    CCC004    000016    -106.6
    CCC004    000017    -141
    CCC004    000018    68
    CCC004    000019    -301.1599
    CCC005    000011    1
    CCC005    000014    1
    CCC005    000016    -102.6
    CCC005    000017    -190
    CCC005    000018    12
    CCC005    000019    985.6399
    CCC005    000020    100
    CCC006    000014    1
    CCC006    000016    -106.2
    CCC006    000017    -245
    CCC006    000018    6
    CCC006    000019    1101.0898
    CCC006    000062    1
    CCC007    000021    -1
    CCC007    000022    1
    CCC007    000023    102.7
    CCC007    000024    136.2
    CCC007    000025    -101
    CCC007    000027    -12
    CCC008    000002    1
    CCC008    000021    1
    CCC008    000023    -105
    CCC008    000024    -114
    CCC008    000025    339
    CCC008    000026    -397.3999
    CCC009    000005    1
    CCC009    000021    1
    CCC009    000023    -89.7
    CCC009    000024    -97
    CCC009    000025    83
    CCC009    000026    39.93
    CCC010    000008    1
    CCC010    000021    1
    CCC010    000023    -105.2
    CCC010    000024    -134
    CCC010    000025    68
    CCC010    000026    -245.37
    CCC011    000011    1
    CCC011    000021    1
    CCC011    000023    -102
    CCC011    000024    -158
    CCC011    000025    12
    CCC011    000026    1053.9199
    CCC011    000027    100
    CCC012    000021    1
    CCC012    000023    -105.4
    CCC012    000024    -218
    CCC012    000025    6
    CCC012    000026    1170.2
    CCC012    000062    1
    CCC013    OBJ       -8
    CCC013    000028    -1
    CCC013    000029    1
    CCC013    000030    104.6
    CCC013    000031    147.3
    CCC013    000032    -101
    CCC014    000002    1
    CCC014    000028    1
    CCC014    000030    -107
    CCC014    000031    -131
    CCC014    000032    339
    CCC014    000033    -287.1499
    CCC015    000005    1
    CCC015    000028    1
    CCC015    000030    -92.5
    CCC015    000031    -100.7
    CCC015    000032    83
    CCC015    000033    167.91
    CCC016    000008    1
    CCC016    000028    1
    CCC016    000030    -107.4
    CCC016    000031    -146
    CCC016    000032    68
    CCC016    000033    -122.63
    CCC017    000011    1
    CCC017    000028    1
    CCC017    000030    -102.9
    CCC017    000031    -203
    CCC017    000032    12
    CCC017    000033    1204.1199
    CCC018    000028    1
    CCC018    000030    -106.5
    CCC018    000031    -255
    CCC018    000032    6
    CCC018    000033    1322.23
    CCC018    000062    1
    CCC019    000028    1
    CCC019    000030    -107.1
    CCC019    000031    -153
    CCC019    000032    65
    CCC019    000033    -107.5
    CCC019    000113    1
    CCC020    OBJ       -4.2
    CCC020    000034    -1
    CCC020    000035    1
    CCC020    000036    7.15
    CCC020    000037    -0.91
    CCC020    000040    -1
    CCC020    000041    -131
    CCC020    000042    -50
    CCC020    000043    50
    CCC020    000044    90
    CCC021    000036    -1.3
    CCC021    000038    -1
    CCC022    000036    -5.5
    CCC022    000114    -1
    CCC023    OBJ       0.0024
    CCC023    000039    -1
    CCC024    OBJ       1.89
    CCC024    000034    1
    CCC024    000036    5.85
    CCC024    000037    -80
    CCC024    000041    1100
    CCC024    000042    100
    CCC024    000043    -100
    CCC024    000044    -100
    CCC024    000114    1.3
    CCC025    OBJ       100
    CCC025    000007    1
    CCC025    000034    1
    CCC025    000036    4.4
    CCC025    000037    -70.7
    CCC025    000041    61
    CCC025    000042    33.5
    CCC025    000043    -71.3
    CCC025    000044    -100
    CCC025    000114    1
    CCC026    000010    1.1236
    CCC026    000034    1
    CCC026    000036    4.8
    CCC026    000037    -38.7
    CCC026    000041    20
    CCC026    000042    8
    CCC026    000043    -13
    CCC026    000044    -84.5
    CCC026    000114    1
    CCC027    000011    1
    CCC027    000034    1
    CCC027    000036    -5
    CCC027    000037    -23.4
    CCC027    000041    12
    CCC027    000044    -100
    CCC027    000114    1
    CCC028    000012    1
    CCC028    000034    1
    CCC028    000036    8.26
    CCC028    000037    -42.4
    CCC028    000041    115
    CCC028    000042    53.2
    CCC028    000043    -63.2
    CCC028    000044    -96
    CCC028    000114    1.4
    CCC029    000034    1
    CCC029    000036    8
    CCC029    000037    -28.1
    CCC029    000041    176
    CCC029    000042    75.8
    CCC029    000043    -85.3
    CCC029    000044    -100
    CCC029    000067    1
    CCC029    000114    3.2
    CCC030    OBJ       -4
    CCC030    000045    -1
    CCC030    000046    1
    CCC030    000047    6.325
    CCC030    000048    -2.28
    CCC030    000051    -1
    CCC030    000052    -140
    CCC030    000053    -50
    CCC030    000054    50
    CCC030    000055    90
    CCC031    OBJ       1.89
    CCC031    000045    1
    CCC031    000047    -7.8
    CCC031    000048    -80
    CCC031    000052    1100
    CCC031    000053    100
    CCC031    000054    -100
    CCC031    000055    -100
    CCC031    000116    1.3
    CCC032    000003    1
    CCC032    000045    1
    CCC032    000047    17.55
    CCC032    000048    -68
    CCC032    000052    218
    CCC032    000053    97
    CCC032    000054    -98.5
    CCC032    000055    -100
    CCC032    000116    1.3
    CCC033    000004    1
    CCC033    000045    1
    CCC033    000047    12.7
    CCC033    000048    -63.7
    CCC033    000052    171
    CCC033    000053    87.7
    CCC033    000054    -93
    CCC033    000055    -100
    CCC033    000116    1
    CCC034    000006    1
    CCC034    000045    1
    CCC034    000047    0.3
    CCC034    000048    -54.6
    CCC034    000052    169
    CCC034    000053    96.5
    CCC034    000054    -98
    CCC034    000055    -100
    CCC034    000116    1.5
    CCC035    000009    1
    CCC035    000045    1
    CCC035    000047    10.4
    CCC035    000048    -78.2
    CCC035    000052    65
    CCC035    000053    80
    CCC035    000054    -98
    CCC035    000055    -100
    CCC035    000116    1
    CCC036    000010    1.0989
    CCC036    000045    1
    CCC036    000047    5.9
    CCC036    000048    -57.4
    CCC036    000052    22
    CCC036    000053    16
    CCC036    000054    -33.4
    CCC036    000055    -95
    CCC036    000116    1
    CCC037    000069    -1
    CCC037    000070    1
    CCC037    000071    100
    CCC037    000072    130.5
    CCC037    000073    -101
    CCC037    000075    45
    CCC037    000076    -13
    CCC038    000056    1
    CCC038    000069    1
    CCC038    000071    -106
    CCC038    000072    -130
    CCC038    000073    346
    CCC038    000074    -440.7
    CCC038    000075    -100
    CCC039    000058    1
    CCC039    000069    1
    CCC039    000071    -99.5
    CCC039    000072    -100
    CCC039    000073    114
    CCC039    000074    -278.47
    CCC039    000075    -88.96
    CCC040    000059    1
    CCC040    000069    1
    CCC040    000071    -89
    CCC040    000072    -92
    CCC040    000073    32
    CCC040    000074    50.36
    CCC041    000061    1
    CCC041    000069    1
    CCC041    000071    -106
    CCC041    000072    -147
    CCC041    000073    67
    CCC041    000074    -303.5898
    CCC041    000075    -14.69
    CCC042    000062    1
    CCC042    000069    1
    CCC042    000071    -104
    CCC042    000072    -200
    CCC042    000073    6
    CCC042    000074    1101.0898
    CCC043    000077    -1
    CCC043    000078    1
    CCC043    000079    102.7
    CCC043    000080    136.2
    CCC043    000081    -101
    CCC043    000083    -11
    CCC044    000056    1
    CCC044    000077    1
    CCC044    000079    -104.3
    CCC044    000080    -120
    CCC044    000081    346
    CCC044    000082    -390.6099
    CCC045    000058    1
    CCC045    000077    1
    CCC045    000079    -98.1
    CCC045    000080    -83
    CCC045    000081    114
    CCC045    000082    -224.85
    CCC046    000061    1
    CCC046    000077    1
    CCC046    000079    -104.5
    CCC046    000080    -137
    CCC046    000081    67
    CCC046    000082    -247.74
    CCC047    000062    1
    CCC047    000077    1
    CCC047    000079    -103.5
    CCC047    000080    -190
    CCC047    000081    6
    CCC047    000082    1170.2
    CCC048    OBJ       -8
    CCC048    000084    -1
    CCC048    000085    1
    CCC048    000086    104.6
    CCC048    000087    147.3
    CCC048    000088    -101
    CCC049    000056    1
    CCC049    000084    1
    CCC049    000086    -106.8
    CCC049    000087    -135
    CCC049    000088    346
    CCC049    000089    -280.4099
    CCC050    000058    1
    CCC050    000084    1
    CCC050    000086    -100.4
    CCC050    000087    -109
    CCC050    000088    114
    CCC050    000089    -106.88
    CCC051    000061    1
    CCC051    000084    1
    CCC051    000086    -106.8
    CCC051    000087    -151.5
    CCC051    000088    67
    CCC051    000089    -124.88
    CCC052    000062    1
    CCC052    000084    1
    CCC052    000086    -104.2
    CCC052    000087    -205
    CCC052    000088    6
    CCC052    000089    1322.23
    CCC053    OBJ       -4.2
    CCC053    000090    -1
    CCC053    000091    1
    CCC053    000092    11
    CCC053    000093    -2
    CCC053    000096    -1
    CCC053    000097    -131
    CCC053    000098    -50
    CCC053    000099    50
    CCC053    000100    90
    CCC054    OBJ       0.0024
    CCC054    000095    -1
    CCC055    000092    -2
    CCC055    000094    -1
    CCC056    000092    -5.5
    CCC056    000115    -1
    CCC057    OBJ       1.89
    CCC057    000090    1
    CCC057    000092    5.85
    CCC057    000093    -82.2
    CCC057    000097    1100
    CCC057    000098    100
    CCC057    000099    -100
    CCC057    000100    -100
    CCC057    000115    1.3
    CCC058    OBJ       100
    CCC058    000061    1
    CCC058    000090    1
    CCC058    000092    4.8
    CCC058    000093    -71.3
    CCC058    000097    67
    CCC058    000098    37
    CCC058    000099    -61.2
    CCC058    000100    -100
    CCC058    000115    1
    CCC059    000063    1
    CCC059    000090    1
    CCC059    000092    22.1
    CCC059    000093    -68.2
    CCC059    000097    32
    CCC059    000098    23.3
    CCC059    000099    -70
    CCC059    000100    -100
    CCC059    000115    1
    CCC060    000064    1
    CCC060    000090    1
    CCC060    000092    -17.55
    CCC060    000093    -28.8
    CCC060    000100    -100
    CCC060    000115    2.7
    CCC061    000066    1.1236
    CCC061    000090    1
    CCC061    000092    14.22
    CCC061    000093    -52.2
    CCC061    000097    25
    CCC061    000098    9.3
    CCC061    000099    -18
    CCC061    000100    -82
    CCC061    000115    1.8
    CCC062    000067    1
    CCC062    000090    1
    CCC062    000092    8
    CCC062    000093    -28.1
    CCC062    000097    176
    CCC062    000098    75.8
    CCC062    000099    -85.3
    CCC062    000100    -100
    CCC062    000115    3.2
    CCC063    OBJ       -4
    CCC063    000068    -0.1
    CCC063    000101    -1
    CCC063    000102    1
    CCC063    000103    8.25
    CCC063    000104    -0.59
    CCC063    000107    -1
    CCC063    000108    -140
    CCC063    000109    -50
    CCC063    000110    50
    CCC063    000111    90
    CCC064    OBJ       1.89
    CCC064    000101    1
    CCC064    000103    -7.8
    CCC064    000104    -82.2
    CCC064    000108    1100
    CCC064    000109    100
    CCC064    000110    -100
    CCC064    000111    -100
    CCC064    000117    1.3
    CCC065    000057    1
    CCC065    000101    1
    CCC065    000103    20.8
    CCC065    000104    -80.2
    CCC065    000108    271
    CCC065    000109    100
    CCC065    000110    -100
    CCC065    000111    -100
    CCC065    000117    1.3
    CCC066    000060    1
    CCC066    000101    1
    CCC066    000103    3
    CCC066    000104    -59.3
    CCC066    000108    195
    CCC066    000109    100
    CCC066    000110    -100
    CCC066    000111    -100
    CCC066    000117    1.5
    CCC067    000063    1
    CCC067    000101    1
    CCC067    000103    11.6
    CCC067    000104    -68.2
    CCC067    000108    32
    CCC067    000109    70
    CCC067    000110    -95
    CCC067    000111    -100
    CCC067    000117    1
    CCC068    000066    1.0989
    CCC068    000101    1
    CCC068    000103    7.38
    CCC068    000104    -49.2
    CCC068    000108    19
    CCC068    000109    15.5
    CCC068    000110    -29.8
    CCC068    000111    -93.8
    CCC068    000117    1.8
    CCC069    OBJ       3
    CCC069    000068    1
    CCC069    000101    1
    CCC069    000103    -7
    CCC069    000104    -30
    CCC069    000108    6
    CCC069    000109    2.3
    CCC069    000110    -10
    CCC069    000111    -82
    CCC069    000117    1.4
    CCC070    000101    1
    CCC070    000103    12.2
    CCC070    000104    -68.2
    CCC070    000108    243
    CCC070    000109    90.8
    CCC070    000110    -94.7
    CCC070    000111    -100
    CCC070    000112    1
    CCC070    000117    1
    CCC079    000085    -1
    CCC085    000002    1
    CCC085    000034    1
    CCC085    000036    9.62
    CCC085    000037    -80
    CCC085    000041    339
    CCC085    000042    100
    CCC085    000043    -100
    CCC085    000044    -100
    CCC085    000114    1.3
    CCC086    OBJ       100
    CCC086    000008    1
    CCC086    000034    1
    CCC086    000036    5.5
    CCC086    000037    -75.2
    CCC086    000041    68
    CCC086    000042    32
    CCC086    000043    -63
    CCC086    000044    -100
    CCC086    000114    1
    CCC087    000013    1
    CCC087    000045    1
    CCC087    000047    -0.7
    CCC087    000048    -39.9
    CCC087    000052    6
    CCC087    000055    -76.8
    CCC087    000116    1.4
    CCC088    000045    1
    CCC088    000047    16
    CCC088    000048    -71.2
    CCC088    000052    47
    CCC088    000053    61.8
    CCC088    000054    -87
    CCC088    000055    -100
    CCC088    000116    1
    CCC088    000118    1
    CCC089    000047    -1.15
    CCC089    000049    -1
    CCC090    000047    -5.5
    CCC090    000116    -1
    CCC091    OBJ       0.0022
    CCC091    000050    -1
    CCC092    000057    1
    CCC093    000058    1
    CCC094    000059    1
    CCC095    000063    1
    CCC096    000056    1
    CCC096    000090    1
    CCC096    000092    8.45
    CCC096    000093    -63.2
    CCC096    000097    346
    CCC096    000098    100
    CCC096    000099    -100
    CCC096    000100    -100
    CCC096    000115    1.3
    CCC097    000058    1
    CCC097    000090    1
    CCC097    000092    20.5
    CCC097    000093    -70
    CCC097    000097    114
    CCC097    000098    100
    CCC097    000099    -100
    CCC097    000100    -100
    CCC097    000115    1
    CCC098    000065    1
    CCC098    000090    1
    CCC098    000092    -22.95
    CCC098    000097    5
    CCC098    000100    -93
    CCC098    000115    2.7
    CCC099    000103    -1.5
    CCC099    000105    -1
    CCC100    000103    -5.5
    CCC100    000117    -1
    CCC101    OBJ       0.0022
    CCC101    000106    -1
    CCC104    000029    -1
    CCC105    000035    -1
    CCC106    000046    -1
    CCC107    000091    -1
    CCC108    000102    -1
    CCC110    000021    1
    CCC110    000023    -104.7
    CCC110    000024    -145.3
    CCC110    000025    65
    CCC110    000026    -230.54
    CCC110    000113    1
    CCC111    000006    1
    CCC111    000034    1
    CCC111    000036    16.05
    CCC111    000037    -54.6
    CCC111    000041    169
    CCC111    000042    94.2
    CCC111    000043    -96.5
    CCC111    000044    -100
    CCC111    000114    1.5
    CCC112    000012    1
    CCC112    000045    1
    CCC112    000047    -6.44
    CCC112    000048    -42.4
    CCC112    000052    115
    CCC112    000053    63.2
    CCC112    000054    -73
    CCC112    000055    -99.7
    CCC112    000116    1.4
    CCC113    000064    1
    CCC113    000069    1
    CCC113    000071    -101
    CCC113    000072    -170
    CCC113    000074    982.3098
    CCC113    000076    100
    CCC114    000064    1
    CCC114    000077    1
    CCC114    000079    -100.6
    CCC114    000080    -165
    CCC114    000082    1050.3398
    CCC114    000083    100
    CCC115    000064    1
    CCC115    000084    1
    CCC115    000086    -101.8
    CCC115    000087    -173
    CCC115    000089    1200
    CCC116    000060    1
    CCC116    000090    1
    CCC116    000092    18.75
    CCC116    000093    -59.3
    CCC116    000097    195
    CCC116    000098    100
    CCC116    000099    -100
    CCC116    000100    -100
    CCC116    000115    1.5
    CCC117    000058    1
    CCC117    000101    1
    CCC117    000103    10
    CCC117    000104    -70
    CCC117    000108    114
    CCC117    000109    100
    CCC117    000110    -100
    CCC117    000111    -100
    CCC117    000117    1
    CCC120    000075    -1
    CCC124    OBJ       10
    CCC124    000014    1
    CCC124    000016    -109
    CCC124    000017    -146
    CCC124    000018    1100
    CCC124    000019    -479.5598
    CCC125    000007    1
    CCC125    000014    1
    CCC125    000016    -106.5
    CCC125    000017    -138.5
    CCC125    000018    61
    CCC125    000019    -275.1899
    CCC126    OBJ       0.06
    CCC126    000014    1
    CCC126    000016    -106
    CCC126    000017    -136
    CCC126    000018    367
    CCC126    000019    -429.7898
    CCC126    000056    1
    CCC127    OBJ       0.06
    CCC127    000014    1
    CCC127    000016    -101
    CCC127    000017    -150
    CCC127    000019    1020
    CCC127    000020    100
    CCC127    000064    1
    CCC128    000014    1
    CCC128    000016    -106
    CCC128    000017    -150
    CCC128    000018    65
    CCC128    000019    -286.47
    CCC128    000113    1
    CCC129    OBJ       10
    CCC129    000021    1
    CCC129    000023    -107.3
    CCC129    000024    -139
    CCC129    000025    1100
    CCC129    000026    -432.7998
    CCC130    000007    1
    CCC130    000021    1
    CCC130    000023    -105.3
    CCC130    000024    -131.8
    CCC130    000025    61
    CCC130    000026    -219.01
    CCC131    OBJ       0.06
    CCC131    000021    1
    CCC131    000023    -104.3
    CCC131    000024    -124.5
    CCC131    000025    367
    CCC131    000026    -386
    CCC131    000056    1
    CCC132    OBJ       0.06
    CCC132    000021    1
    CCC132    000023    -100.6
    CCC132    000024    -130
    CCC132    000026    1081
    CCC132    000027    100
    CCC132    000064    1
    CCC133    OBJ       10
    CCC133    000028    1
    CCC133    000030    -110
    CCC133    000031    -150
    CCC133    000032    1100
    CCC133    000033    -329.9299
    CCC134    000007    1
    CCC134    000028    1
    CCC134    000030    -107.3
    CCC134    000031    -141
    CCC134    000032    61
    CCC134    000033    -95.42
    CCC135    OBJ       0.06
    CCC135    000028    1
    CCC135    000030    -107.8
    CCC135    000031    -139.3
    CCC135    000032    351
    CCC135    000033    -273.3899
    CCC135    000056    1
    CCC136    OBJ       0.06
    CCC136    000028    1
    CCC136    000030    -102.8
    CCC136    000031    -170
    CCC136    000032    6
    CCC136    000033    1237
    CCC136    000064    1
    CCC137    000037    35
    CCC137    000038    3.34
    CCC137    000039    84
    CCC137    000040    1
    CCC138    000037    35
    CCC138    000038    3.68
    CCC138    000039    105
    CCC138    000040    1
    CCC139    000037    35
    CCC139    000038    3.91
    CCC139    000039    121.8
    CCC139    000040    1
    CCC140    000037    40
    CCC140    000038    3.93
    CCC140    000039    84
    CCC140    000040    1
    CCC141    000037    40
    CCC141    000038    4.32
    CCC141    000039    105
    CCC141    000040    1
    CCC142    000037    40
    CCC142    000038    4.61
    CCC142    000039    121.8
    CCC142    000040    1
    CCC143    000037    45
    CCC143    000038    4.56
    CCC143    000039    84
    CCC143    000040    1
    CCC144    000037    45
    CCC144    000038    5.05
    CCC144    000039    105
    CCC144    000040    1
    CCC145    000037    45
    CCC145    000038    5.38
    CCC145    000039    121.8
    CCC145    000040    1
    CCC146    000037    50
    CCC146    000038    5.25
    CCC146    000039    84
    CCC146    000040    1
    CCC147    000037    50
    CCC147    000038    5.77
    CCC147    000039    105
    CCC147    000040    1
    CCC148    000037    50
    CCC148    000038    6.199
    CCC148    000039    121.8
    CCC148    000040    1
    CCC149    000037    55
    CCC149    000038    5.98
    CCC149    000039    84
    CCC149    000040    1
    CCC150    000037    55
    CCC150    000038    6.65
    CCC150    000039    105
    CCC150    000040    1
    CCC151    000037    55
    CCC151    000038    7.107
    CCC151    000039    121.8
    CCC151    000040    1
    CCC152    000035    1
    CCC152    000091    -1
    CCC153    000003    1
    CCC153    000034    1
    CCC153    000036    31.2
    CCC153    000037    -68
    CCC153    000041    218
    CCC153    000042    95
    CCC153    000043    -97
    CCC153    000044    -100
    CCC153    000114    1.3
    CCC154    000004    1
    CCC154    000034    1
    CCC154    000036    23.2
    CCC154    000037    -63.7
    CCC154    000041    171
    CCC154    000042    76.5
    CCC154    000043    -87.7
    CCC154    000044    -99.7
    CCC154    000114    1
    CCC155    000009    1
    CCC155    000034    1
    CCC155    000036    20.9
    CCC155    000037    -78.2
    CCC155    000041    65
    CCC155    000042    43
    CCC155    000043    -80
    CCC155    000044    -100
    CCC155    000097    61
    CCC155    000114    1
    CCC156    000013    1
    CCC156    000034    1
    CCC156    000036    14
    CCC156    000037    -39.9
    CCC156    000041    6
    CCC156    000044    -39
    CCC156    000114    1.4
    CCC157    000034    1
    CCC157    000036    26.5
    CCC157    000037    -71.2
    CCC157    000041    47
    CCC157    000042    21.5
    CCC157    000043    -61.8
    CCC157    000044    -100
    CCC157    000114    1
    CCC157    000118    1
    CCC158    000012    -1
    CCC158    000046    1
    CCC159    000005    1
    CCC159    000045    1
    CCC159    000047    11.8
    CCC159    000048    -64.2
    CCC159    000052    83
    CCC159    000053    83.5
    CCC159    000054    -94.4
    CCC159    000055    -100
    CCC159    000116    1
    CCC160    000045    1
    CCC160    000047    12.2
    CCC160    000048    -68.2
    CCC160    000052    243
    CCC160    000053    90.8
    CCC160    000054    -94.7
    CCC160    000055    -100
    CCC160    000112    1
    CCC160    000116    1
    CCC161    000048    50
    CCC161    000051    1
    CCC162    000048    50
    CCC162    000049    2.064
    CCC162    000050    12.6
    CCC162    000051    1
    CCC163    000048    50
    CCC163    000049    3.617
    CCC163    000050    25.2
    CCC163    000051    1
    CCC164    000048    50
    CCC164    000049    4.806
    CCC164    000050    37.8
    CCC164    000051    1
    CCC165    000048    50
    CCC165    000049    5.743
    CCC165    000050    50.4
    CCC165    000051    1
    CCC166    000048    55
    CCC166    000051    1
    CCC167    000048    55
    CCC167    000049    2.329
    CCC167    000050    12.6
    CCC167    000051    1
    CCC168    000048    55
    CCC168    000049    4.094
    CCC168    000050    25.2
    CCC168    000051    1
    CCC169    000048    55
    CCC169    000049    5.449
    CCC169    000050    37.8
    CCC169    000051    1
    CCC170    000048    55
    CCC170    000049    6.543
    CCC170    000050    50.4
    CCC170    000051    1
    CCC171    000048    60
    CCC171    000051    1
    CCC172    000048    60
    CCC172    000049    2.614
    CCC172    000050    12.6
    CCC172    000051    1
    CCC173    000048    60
    CCC173    000049    4.609
    CCC173    000050    25.2
    CCC173    000051    1
    CCC174    000048    60
    CCC174    000049    6.147
    CCC174    000050    37.8
    CCC174    000051    1
    CCC175    000048    60
    CCC175    000049    7.379
    CCC175    000050    50.4
    CCC175    000051    1
    CCC176    000048    65
    CCC176    000051    1
    CCC177    000048    65
    CCC177    000049    2.91
    CCC177    000050    12.6
    CCC177    000051    1
    CCC178    000048    65
    CCC178    000049    5.143
    CCC178    000050    25.2
    CCC178    000051    1
    CCC179    000048    65
    CCC179    000049    6.881
    CCC179    000050    37.8
    CCC179    000051    1
    CCC180    000048    65
    CCC180    000049    9.19
    CCC180    000050    50.4
    CCC180    000051    1
    CCC181    000048    70
    CCC181    000051    1
    CCC182    000048    70
    CCC182    000049    3.217
    CCC182    000050    12.6
    CCC182    000051    1
    CCC183    000048    70
    CCC183    000049    5.701
    CCC183    000050    25.2
    CCC183    000051    1
    CCC184    000048    70
    CCC184    000049    7.657
    CCC184    000050    37.8
    CCC184    000051    1
    CCC185    000048    70
    CCC185    000049    9.241
    CCC185    000050    50.4
    CCC185    000051    1
    CCC186    OBJ       10
    CCC186    000069    1
    CCC186    000071    -109
    CCC186    000072    -146
    CCC186    000073    1100
    CCC186    000074    -479.5598
    CCC186    000075    -100
    CCC187    OBJ       10
    CCC187    000077    1
    CCC187    000079    -107.3
    CCC187    000080    -139
    CCC187    000081    1100
    CCC187    000082    -432.7998
    CCC188    000059    1
    CCC188    000077    1
    CCC188    000079    -87
    CCC188    000080    -75
    CCC188    000081    32
    CCC188    000082    110.29
    CCC189    OBJ       10
    CCC189    000084    1
    CCC189    000086    -110
    CCC189    000087    -150
    CCC189    000088    1100
    CCC189    000089    -329.9299
    CCC190    000059    1
    CCC190    000084    1
    CCC190    000086    -89.5
    CCC190    000087    -101
    CCC190    000088    32
    CCC190    000089    242.13
    CCC191    000112    1
    CCC192    000093    35
    CCC192    000096    1
    CCC193    000093    35
    CCC193    000094    1.05
    CCC193    000095    21
    CCC193    000096    1
    CCC194    000093    35
    CCC194    000094    2.46
    CCC194    000095    42
    CCC194    000096    1
    CCC195    000093    35
    CCC195    000094    2.96
    CCC195    000095    63
    CCC195    000096    1
    CCC196    000093    35
    CCC196    000094    3.34
    CCC196    000095    84
    CCC196    000096    1
    CCC197    000093    40
    CCC197    000096    1
    CCC198    000093    40
    CCC198    000094    1.78
    CCC198    000095    21
    CCC198    000096    1
    CCC199    000093    40
    CCC199    000094    2.89
    CCC199    000095    42
    CCC199    000096    1
    CCC200    000093    40
    CCC200    000094    3.49
    CCC200    000095    63
    CCC200    000096    1
    CCC201    000093    40
    CCC201    000094    3.93
    CCC201    000095    84
    CCC201    000096    1
    CCC202    000093    45
    CCC202    000096    1
    CCC203    000093    45
    CCC203    000094    2.13
    CCC203    000095    21
    CCC203    000096    1
    CCC204    000093    45
    CCC204    000094    3.35
    CCC204    000095    42
    CCC204    000096    1
    CCC205    000093    45
    CCC205    000094    4.04
    CCC205    000095    63
    CCC205    000096    1
    CCC206    000093    45
    CCC206    000094    4.56
    CCC206    000095    84
    CCC206    000096    1
    CCC207    000093    50
    CCC207    000096    1
    CCC208    000093    50
    CCC208    000094    2.46
    CCC208    000095    21
    CCC208    000096    1
    CCC209    000093    50
    CCC209    000094    3.84
    CCC209    000095    42
    CCC209    000096    1
    CCC210    000093    50
    CCC210    000094    4.64
    CCC210    000095    63
    CCC210    000096    1
    CCC211    000093    50
    CCC211    000094    5.25
    CCC211    000095    84
    CCC211    000096    1
    CCC212    000093    55
    CCC212    000096    1
    CCC213    000093    55
    CCC213    000094    2.78
    CCC213    000095    21
    CCC213    000096    1
    CCC214    000093    55
    CCC214    000094    4.35
    CCC214    000095    42
    CCC214    000096    1
    CCC215    000093    55
    CCC215    000094    5.29
    CCC215    000095    63
    CCC215    000096    1
    CCC216    000093    55
    CCC216    000094    5.98
    CCC216    000095    84
    CCC216    000096    1
    CCC217    000057    1
    CCC217    000090    1
    CCC217    000092    34.45
    CCC217    000093    -80.2
    CCC217    000097    271
    CCC217    000098    100
    CCC217    000099    -100
    CCC217    000100    -100
    CCC217    000115    1.3
    CCC218    000062    1
    CCC218    000090    1
    CCC218    000092    -31.05
    CCC218    000093    -5.2
    CCC218    000097    6
    CCC218    000099    -55
    CCC218    000100    -100
    CCC218    000115    2.7
    CCC219    000059    1
    CCC219    000101    1
    CCC219    000103    14
    CCC219    000104    -61.2
    CCC219    000108    32
    CCC219    000109    94
    CCC219    000110    -100
    CCC219    000111    -100
    CCC219    000117    1
    CCC220    000067    1
    CCC220    000101    1
    CCC220    000103    -25.6
    CCC220    000104    -28.1
    CCC220    000108    176
    CCC220    000109    85.3
    CCC220    000110    -92.8
    CCC220    000111    -100
    CCC220    000117    3.2
    CCC221    000104    50
    CCC221    000107    1
    CCC222    000104    50
    CCC222    000105    2.064
    CCC222    000106    12.6
    CCC222    000107    1
    CCC223    000104    50
    CCC223    000105    3.617
    CCC223    000106    25.2
    CCC223    000107    1
    CCC224    000104    50
    CCC224    000105    4.806
    CCC224    000106    37.8
    CCC224    000107    1
    CCC225    000104    50
    CCC225    000105    5.743
    CCC225    000106    50.4
    CCC225    000107    1
    CCC226    000104    55
    CCC226    000107    1
    CCC227    000104    55
    CCC227    000105    2.329
    CCC227    000106    12.6
    CCC227    000107    1
    CCC228    000104    55
    CCC228    000105    4.094
    CCC228    000106    25.2
    CCC228    000107    1
    CCC229    000104    55
    CCC229    000105    5.449
    CCC229    000106    37.8
    CCC229    000107    1
    CCC230    000104    55
    CCC230    000105    6.543
    CCC230    000106    50.4
    CCC230    000107    1
    CCC231    000104    60
    CCC231    000107    1
    CCC232    000104    60
    CCC232    000105    2.614
    CCC232    000106    12.6
    CCC232    000107    1
    CCC233    000104    60
    CCC233    000105    4.609
    CCC233    000106    25.2
    CCC233    000107    1
    CCC234    000104    60
    CCC234    000105    6.147
    CCC234    000106    37.8
    CCC234    000107    1
    CCC235    000104    60
    CCC235    000105    7.379
    CCC235    000106    50.4
    CCC235    000107    1
    CCC236    000104    65
    CCC236    000107    1
    CCC237    000104    65
    CCC237    000105    2.91
    CCC237    000106    12.6
    CCC237    000107    1
    CCC238    000104    65
    CCC238    000105    5.143
    CCC238    000106    25.2
    CCC238    000107    1
    CCC239    000104    65
    CCC239    000105    6.881
    CCC239    000106    37.8
    CCC239    000107    1
    CCC240    000104    65
    CCC240    000105    9.19
    CCC240    000106    50.4
    CCC240    000107    1
    CCC241    000104    70
    CCC241    000107    1
    CCC242    000104    70
    CCC242    000105    3.217
    CCC242    000106    12.6
    CCC242    000107    1
    CCC243    000104    70
    CCC243    000105    5.701
    CCC243    000106    25.2
    CCC243    000107    1
    CCC244    000104    70
    CCC244    000105    7.567
    CCC244    000106    37.8
    CCC244    000107    1
    CCC245    000104    70
    CCC245    000105    9.241
    CCC245    000106    50.4
    CCC245    000107    1
    CCC250    OBJ       100
    CCC250    000068    1
RHS
    RHS1      000002    113
    RHS1      000003    124
    RHS1      000004    44
    RHS1      000005    197
    RHS1      000006    428
    RHS1      000007    282
    RHS1      000008    351
    RHS1      000009    163
    RHS1      000010    2281.2998
    RHS1      000011    215
    RHS1      000012    1106
    RHS1      000013    279
    RHS1      000015    333.8999
    RHS1      000016    0.0001
    RHS1      000017    0.0001
    RHS1      000018    0.0001
    RHS1      000019    0.0001
    RHS1      000020    0.0001
    RHS1      000021    0.0001
    RHS1      000022    72.8
    RHS1      000023    0.0001
    RHS1      000024    0.0001
    RHS1      000025    0.0001
    RHS1      000026    0.0001
    RHS1      000027    0.0001
    RHS1      000029    237.4
    RHS1      000030    0.0001
    RHS1      000031    0.0001
    RHS1      000032    0.0001
    RHS1      000033    0.0001
    RHS1      000035    2320
    RHS1      000036    0.0001
    RHS1      000037    0.0001
    RHS1      000038    0.0001
    RHS1      000039    0.0001
    RHS1      000040    0.0001
    RHS1      000041    0.0001
    RHS1      000042    0.0001
    RHS1      000043    0.0001
    RHS1      000044    0.0001
    RHS1      000046    2935.5999
    RHS1      000047    0.0001
    RHS1      000048    0.0001
    RHS1      000049    0.0001
    RHS1      000050    0.0001
    RHS1      000051    0.0001
    RHS1      000052    0.0001
    RHS1      000053    0.0001
    RHS1      000054    0.0001
    RHS1      000055    0.0001
    RHS1      000056    125
    RHS1      000057    121
    RHS1      000058    258
    RHS1      000059    74
    RHS1      000060    422
    RHS1      000061    785
    RHS1      000062    152
    RHS1      000063    234
    RHS1      000064    104
    RHS1      000065    108
    RHS1      000066    2029
    RHS1      000067    604
    RHS1      000070    82.8
    RHS1      000071    0.0001
    RHS1      000072    0.0001
    RHS1      000073    0.0001
    RHS1      000074    0.0001
    RHS1      000075    0.0001
    RHS1      000076    0.0001
    RHS1      000078    148.4
    RHS1      000079    0.0001
    RHS1      000080    0.0001
    RHS1      000081    0.0001
    RHS1      000082    0.0001
    RHS1      000083    0.0001
    RHS1      000085    464.3999
    RHS1      000086    0.0001
    RHS1      000087    0.0001
    RHS1      000088    0.0001
    RHS1      000089    0.0001
    RHS1      000091    2115.5999
    RHS1      000092    0.0001
    RHS1      000093    0.0001
    RHS1      000094    0.0001
    RHS1      000095    0.0001
    RHS1      000096    0.0001
    RHS1      000097    0.0001
    RHS1      000098    0.0001
    RHS1      000099    0.0001
    RHS1      000100    0.0001
    RHS1      000102    1602.2
    RHS1      000103    0.0001
    RHS1      000104    0.0001
    RHS1      000105    0.0001
    RHS1      000106    0.0001
    RHS1      000107    0.0001
    RHS1      000108    0.0001
    RHS1      000109    0.0001
    RHS1      000110    0.0001
    RHS1      000111    0.0001
    RHS1      000112    575
    RHS1      000113    186
    RHS1      000118    248
BOUNDS
ENDATA
